4 
5  29 59 
6  14 29 36 44 52 59 
7  07 14 22 29 37 44 52 59 
8  07 14 22 29 37 44 52 59 
9  07 14 22 29 37 44 52 59 
10  07 14 22 29 37 44 52 59 
11  07 14 22 29 37 44 52 59 
12  07 14 22 29 37 44 52 59 
13  07 14 23 30 38 45 53 
14  00 08 15 23 30 38 45 53 
15  00 08 15 23 30 38 45 53 
16  00 08 15 23 30 38 45 53 
17  00 08 15 23 30 38 45 53 
18  00 08 15 23 30 38 45 53 
19  00 08 15 22 29 37 44 52 59 
20  07 14 22 29 37 44 55 
21  10 25 40 55 
22  10 24 39 50 
23  05 20 35 50 
0 
